c nIsolatedPIs 0
c maxPI 32
p cnf 176 433
c gate 33 2 18 0
2 -33 0
18 -33 0
-2 -18 33 0
c gate 34 1 17 0
1 -34 0
17 -34 0
-1 -17 34 0
c gate 35 -33 -34 0
-33 -35 0
-34 -35 0
33 34 35 0
c gate 36 -2 -18 0
-2 -36 0
-18 -36 0
2 18 36 0
c gate 37 -3 -19 0
-3 -37 0
-19 -37 0
3 19 37 0
c gate 38 -36 -37 0
-36 -38 0
-37 -38 0
36 37 38 0
c gate 39 -35 38 0
-35 -39 0
38 -39 0
35 -38 39 0
c gate 40 4 20 0
4 -40 0
20 -40 0
-4 -20 40 0
c gate 41 3 19 0
3 -41 0
19 -41 0
-3 -19 41 0
c gate 42 -40 -41 0
-40 -42 0
-41 -42 0
40 41 42 0
c gate 43 -39 42 0
-39 -43 0
42 -43 0
39 -42 43 0
c gate 44 -5 -21 0
-5 -44 0
-21 -44 0
5 21 44 0
c gate 45 -4 -20 0
-4 -45 0
-20 -45 0
4 20 45 0
c gate 46 -44 -45 0
-44 -46 0
-45 -46 0
44 45 46 0
c gate 47 -43 46 0
-43 -47 0
46 -47 0
43 -46 47 0
c gate 48 6 -22 0
6 -48 0
-22 -48 0
-6 22 48 0
c gate 49 -6 22 0
-6 -49 0
22 -49 0
6 -22 49 0
c gate 50 -48 -49 0
-48 -50 0
-49 -50 0
48 49 50 0
c gate 51 5 21 0
5 -51 0
21 -51 0
-5 -21 51 0
c gate 52 -50 -51 0
-50 -52 0
-51 -52 0
50 51 52 0
c gate 53 -47 52 0
-47 -53 0
52 -53 0
47 -52 53 0
c gate 54 -11 -27 0
-11 -54 0
-27 -54 0
11 27 54 0
c gate 55 11 27 0
11 -55 0
27 -55 0
-11 -27 55 0
c gate 56 -54 -55 0
-54 -56 0
-55 -56 0
54 55 56 0
c gate 57 10 -26 0
10 -57 0
-26 -57 0
-10 26 57 0
c gate 58 8 -24 0
8 -58 0
-24 -58 0
-8 24 58 0
c gate 59 9 25 0
9 -59 0
25 -59 0
-9 -25 59 0
c gate 60 -9 -25 0
-9 -60 0
-25 -60 0
9 25 60 0
c gate 61 -59 -60 0
-59 -61 0
-60 -61 0
59 60 61 0
c gate 62 -58 -61 0
-58 -62 0
-61 -62 0
58 61 62 0
c gate 63 -10 26 0
-10 -63 0
26 -63 0
10 -26 63 0
c gate 64 -9 25 0
-9 -64 0
25 -64 0
9 -25 64 0
c gate 65 -63 -64 0
-63 -65 0
-64 -65 0
63 64 65 0
c gate 66 -62 65 0
-62 -66 0
65 -66 0
62 -65 66 0
c gate 67 -57 -66 0
-57 -67 0
-66 -67 0
57 66 67 0
c gate 68 -7 23 0
-7 -68 0
23 -68 0
7 -23 68 0
c gate 69 7 -23 0
7 -69 0
-23 -69 0
-7 23 69 0
c gate 70 -48 -69 0
-48 -70 0
-69 -70 0
48 69 70 0
c gate 71 -2 18 0
-2 -71 0
18 -71 0
2 -18 71 0
c gate 72 -1 17 0
-1 -72 0
17 -72 0
1 -17 72 0
c gate 73 -71 -72 0
-71 -73 0
-72 -73 0
71 72 73 0
c gate 74 2 -18 0
2 -74 0
-18 -74 0
-2 18 74 0
c gate 75 3 -19 0
3 -75 0
-19 -75 0
-3 19 75 0
c gate 76 -74 -75 0
-74 -76 0
-75 -76 0
74 75 76 0
c gate 77 -73 76 0
-73 -77 0
76 -77 0
73 -76 77 0
c gate 78 -4 20 0
-4 -78 0
20 -78 0
4 -20 78 0
c gate 79 -3 19 0
-3 -79 0
19 -79 0
3 -19 79 0
c gate 80 -78 -79 0
-78 -80 0
-79 -80 0
78 79 80 0
c gate 81 -77 80 0
-77 -81 0
80 -81 0
77 -80 81 0
c gate 82 5 -21 0
5 -82 0
-21 -82 0
-5 21 82 0
c gate 83 4 -20 0
4 -83 0
-20 -83 0
-4 20 83 0
c gate 84 -82 -83 0
-82 -84 0
-83 -84 0
82 83 84 0
c gate 85 -81 84 0
-81 -85 0
84 -85 0
81 -84 85 0
c gate 86 -5 21 0
-5 -86 0
21 -86 0
5 -21 86 0
c gate 87 50 -86 0
50 -87 0
-86 -87 0
-50 86 87 0
c gate 88 -85 87 0
-85 -88 0
87 -88 0
85 -87 88 0
c gate 89 70 -88 0
70 -89 0
-88 -89 0
-70 88 89 0
c gate 90 -68 -89 0
-68 -90 0
-89 -90 0
68 89 90 0
c gate 91 8 24 0
8 -91 0
24 -91 0
-8 -24 91 0
c gate 92 -8 -24 0
-8 -92 0
-24 -92 0
8 24 92 0
c gate 93 -91 -92 0
-91 -93 0
-92 -93 0
91 92 93 0
c gate 94 90 -93 0
90 -94 0
-93 -94 0
-90 93 94 0
c gate 95 65 94 0
65 -95 0
94 -95 0
-65 -94 95 0
c gate 96 67 -95 0
67 -96 0
-95 -96 0
-67 95 96 0
c gate 97 -56 96 0
-56 -97 0
96 -97 0
56 -96 97 0
c gate 98 56 -96 0
56 -98 0
-96 -98 0
-56 96 98 0
c gate 99 -97 -98 0
-97 -99 0
-98 -99 0
97 98 99 0
c gate 100 67 -99 0
67 -100 0
-99 -100 0
-67 99 100 0
c gate 101 -68 -69 0
-68 -101 0
-69 -101 0
68 69 101 0
c gate 102 88 -101 0
88 -102 0
-101 -102 0
-88 101 102 0
c gate 103 -6 -22 0
-6 -103 0
-22 -103 0
6 22 103 0
c gate 104 -53 -103 0
-53 -104 0
-103 -104 0
53 103 104 0
c gate 105 -101 -104 0
-101 -105 0
-104 -105 0
101 104 105 0
c gate 106 93 105 0
93 -106 0
105 -106 0
-93 -105 106 0
c gate 107 -7 -23 0
-7 -107 0
-23 -107 0
7 23 107 0
c gate 108 -91 107 0
-91 -108 0
107 -108 0
91 -107 108 0
c gate 109 -60 -92 0
-60 -109 0
-92 -109 0
60 92 109 0
c gate 110 -108 109 0
-108 -110 0
109 -110 0
108 -109 110 0
c gate 111 10 26 0
10 -111 0
26 -111 0
-10 -26 111 0
c gate 112 -59 -111 0
-59 -112 0
-111 -112 0
59 111 112 0
c gate 113 -110 112 0
-110 -113 0
112 -113 0
110 -112 113 0
c gate 114 -10 -26 0
-10 -114 0
-26 -114 0
10 26 114 0
c gate 115 -54 -114 0
-54 -115 0
-114 -115 0
54 114 115 0
c gate 116 -113 115 0
-113 -116 0
115 -116 0
113 -115 116 0
c gate 117 -55 -116 0
-55 -117 0
-116 -117 0
55 116 117 0
c gate 118 -12 -28 0
-12 -118 0
-28 -118 0
12 28 118 0
c gate 119 12 28 0
12 -119 0
28 -119 0
-12 -28 119 0
c gate 120 -118 -119 0
-118 -120 0
-119 -120 0
118 119 120 0
c gate 121 -106 110 0
-106 -121 0
110 -121 0
106 -110 121 0
c gate 122 -59 -121 0
-59 -122 0
-121 -122 0
59 121 122 0
c gate 123 -114 -122 0
-114 -123 0
-122 -123 0
114 122 123 0
c gate 124 -55 -111 0
-55 -124 0
-111 -124 0
55 111 124 0
c gate 125 -123 124 0
-123 -125 0
124 -125 0
123 -124 125 0
c gate 126 -54 -125 0
-54 -126 0
-125 -126 0
54 125 126 0
c gate 127 -120 126 0
-120 -127 0
126 -127 0
120 -126 127 0
c gate 128 117 -127 0
117 -128 0
-127 -128 0
-117 127 128 0
c gate 129 120 -126 0
120 -129 0
-126 -129 0
-120 126 129 0
c gate 130 -117 -129 0
-117 -130 0
-129 -130 0
117 129 130 0
c gate 131 -128 -130 0
-128 -131 0
-130 -131 0
128 130 131 0
c gate 132 106 131 0
106 -132 0
131 -132 0
-106 -131 132 0
c gate 133 120 126 0
120 -133 0
126 -133 0
-120 -126 133 0
c gate 134 -14 -30 0
-14 -134 0
-30 -134 0
14 30 134 0
c gate 135 14 30 0
14 -135 0
30 -135 0
-14 -30 135 0
c gate 136 -134 -135 0
-134 -136 0
-135 -136 0
134 135 136 0
c gate 137 -118 136 0
-118 -137 0
136 -137 0
118 -136 137 0
c gate 138 13 -29 0
13 -138 0
-29 -138 0
-13 29 138 0
c gate 139 -13 29 0
-13 -139 0
29 -139 0
13 -29 139 0
c gate 140 -138 -139 0
-138 -140 0
-139 -140 0
138 139 140 0
c gate 141 -16 -32 0
-16 -141 0
-32 -141 0
16 32 141 0
c gate 142 16 32 0
16 -142 0
32 -142 0
-16 -32 142 0
c gate 143 -141 -142 0
-141 -143 0
-142 -143 0
141 142 143 0
c gate 144 -15 -31 0
-15 -144 0
-31 -144 0
15 31 144 0
c gate 145 15 31 0
15 -145 0
31 -145 0
-15 -31 145 0
c gate 146 -144 -145 0
-144 -146 0
-145 -146 0
144 145 146 0
c gate 147 143 146 0
143 -147 0
146 -147 0
-143 -146 147 0
c gate 148 -140 147 0
-140 -148 0
147 -148 0
140 -147 148 0
c gate 149 137 148 0
137 -149 0
148 -149 0
-137 -148 149 0
c gate 150 133 -149 0
133 -150 0
-149 -150 0
-133 149 150 0
c gate 151 -132 -150 0
-132 -151 0
-150 -151 0
132 150 151 0
c gate 152 -119 149 0
-119 -152 0
149 -152 0
119 -149 152 0
c gate 153 126 152 0
126 -153 0
152 -153 0
-126 -152 153 0
c gate 154 -88 -153 0
-88 -154 0
-153 -154 0
88 153 154 0
c gate 155 -151 154 0
-151 -155 0
154 -155 0
151 -154 155 0
c gate 156 -102 -155 0
-102 -156 0
-155 -156 0
102 155 156 0
c gate 157 -94 -156 0
-94 -157 0
-156 -157 0
94 156 157 0
c gate 158 70 93 0
70 -158 0
93 -158 0
-70 -93 158 0
c gate 159 90 158 0
90 -159 0
158 -159 0
-90 -158 159 0
c gate 160 -94 -159 0
-94 -160 0
-159 -160 0
94 159 160 0
c gate 161 -111 -114 0
-111 -161 0
-114 -161 0
111 114 161 0
c gate 162 -61 -161 0
-61 -162 0
-161 -162 0
61 161 162 0
c gate 163 -159 162 0
-159 -163 0
162 -163 0
159 -162 163 0
c gate 164 -160 -163 0
-160 -164 0
-163 -164 0
160 163 164 0
c gate 165 -157 -164 0
-157 -165 0
-164 -165 0
157 164 165 0
c gate 166 -100 165 0
-100 -166 0
165 -166 0
100 -165 166 0
c gate 167 -97 -166 0
-97 -167 0
-166 -167 0
97 166 167 0
c gate 168 -120 -136 0
-120 -168 0
-136 -168 0
120 136 168 0
c gate 169 -143 -146 0
-143 -169 0
-146 -169 0
143 146 169 0
c gate 170 140 169 0
140 -170 0
169 -170 0
-140 -169 170 0
c gate 171 168 170 0
168 -171 0
170 -171 0
-168 -170 171 0
c gate 172 97 171 0
97 -172 0
171 -172 0
-97 -171 172 0
c gate 173 -167 -172 0
-167 -173 0
-172 -173 0
167 172 173 0
c gate 174 53 173 0
53 -174 0
173 -174 0
-53 -173 174 0
c gate 175 -53 -105 0
-53 -175 0
-105 -175 0
53 105 175 0
c gate 176 -174 -175 0
-174 -176 0
-175 -176 0
174 175 176 0
c PO
176 0
